6 59 56 46 93 60 45 41 98 44 70 72 20 21 3 54 37 7 66 62 25 40 18 80 50 73 81 1 74 47 5 84 87 71 13 57 19 52 88 11 91 69 76 86 48 15 65 33 94 0 61 49 24 9 23 64 89 29 90 26 85 95 30 53 97 36 31 12 96 16 68 67 10 75 2 79 17 43 22 63 27 34 38 35 92 83 55 51 39 99 8 77 32 4 28 14 58 78 42 82